Instance Name : rc207
Date : 2022-07-18
Solution
Route 1 : 65 83 64 95 62 31 29 28 30 63 85 76 18 21 23 19 51 84 56 92 94 67 50 34 27 26 32 33 89 48 24 66 91 80
Route 2 : 82 52 75 59 9 11 15 16 47 14 12 53 78 73 79 7 6 8 46 45 3 43 36 35 37 39 41 54 96
Route 3 : 69 98 88 2 5 42 44 40 38 72 71 93 61 81 90 99 87 74 86 57 22 20 49 25 77 58 97 13 10 17 60 4 1 70 100 55 68
